row=11;
column=11;
Board=[|0,1,0,0,1,0,1,0,1,0,0|1,0,0,0,0,0,0,0,0,0,0|0,0,0,0,1,0,1,0,1,0,1|0,0,1,0,0,0,0,0,0,0,0|1,0,0,0,0,0,0,0,0,0,0|0,0,0,0,0,0,1,0,1,0,0|0,0,0,0,1,0,0,0,0,0,1|1,0,0,0,0,0,0,0,0,0,0|0,0,0,1,0,1,0,0,1,0,0|0,0,0,0,0,0,0,0,0,0,1|0,0,0,0,0,0,0,0,0,0,0|];
right = [2,2,1,4,1,1,2,2,1,3,1];
bottom = [4,0,1,1,3,1,2,1,3,0,4];
